p cnf 13 100
d 1 3
d 2 3
d 3 3
d 4 3
d 5 3
d 6 3
d 7 3
d 8 3
d 9 3
d 10 3
d 11 3
d 12 3
d 13 3
1=2 7=0 12=1 0
13=2 12=1 11=1 0
10=0 9=1 3=0 0
6=2 4=0 11=2 0
12=2 10=2 9=0 0
6=1 13=1 7=2 0
13=1 1=2 5=0 0
1=1 3=1 11=2 0
12=0 3=1 9=2 0
1=0 9=0 2=0 0
4=1 12=2 11=0 0
12=0 7=0 3=0 0
9=1 4=2 1=0 0
3=0 8=1 11=2 0
11=1 8=0 10=2 0
2=0 7=2 10=0 0
3=2 4=1 13=2 0
13=2 2=0 11=0 0
7=0 4=0 5=2 0
2=2 8=0 12=1 0
10=0 1=2 4=0 0
1=2 3=2 6=2 0
4=0 10=1 12=2 0
2=2 6=0 13=0 0
9=2 8=1 7=0 0
13=0 12=2 8=1 0
13=2 8=1 6=1 0
7=2 10=0 9=2 0
7=2 6=2 3=0 0
12=2 4=0 6=0 0
4=1 3=0 6=1 0
6=2 11=1 9=0 0
3=1 1=2 9=2 0
1=2 2=1 5=2 0
3=1 10=0 4=0 0
1=0 11=1 5=2 0
10=1 7=1 9=0 0
3=1 10=0 8=0 0
7=1 9=2 5=0 0
8=0 13=0 5=1 0
10=1 7=1 8=0 0
13=2 12=0 5=2 0
5=0 7=2 10=1 0
5=0 13=0 2=2 0
4=0 1=0 7=2 0
5=0 11=1 4=1 0
5=0 1=2 3=2 0
10=1 9=2 6=0 0
7=1 4=2 8=2 0
8=2 4=1 6=0 0
4=2 3=0 12=2 0
9=1 11=2 5=2 0
2=2 12=0 8=2 0
5=2 1=0 9=1 0
2=2 8=1 1=1 0
6=2 1=2 7=2 0
5=0 3=0 13=1 0
7=0 1=1 12=1 0
8=1 10=2 12=1 0
7=0 9=2 10=0 0
3=0 8=1 9=1 0
4=1 13=0 10=0 0
3=2 6=1 8=2 0
7=0 10=1 11=1 0
9=2 7=2 5=2 0
8=0 7=1 4=1 0
6=1 5=0 2=0 0
9=0 11=2 8=2 0
6=0 9=2 13=0 0
9=2 8=1 1=0 0
9=2 2=1 8=1 0
9=1 7=2 2=2 0
12=2 11=1 5=2 0
8=0 1=1 9=0 0
1=0 11=2 9=0 0
4=2 9=0 7=2 0
1=2 9=0 8=2 0
1=2 11=1 13=1 0
8=2 12=1 4=2 0
4=1 9=1 3=2 0
2=0 1=1 6=2 0
4=1 3=0 1=2 0
8=2 5=1 13=1 0
10=1 1=1 9=1 0
7=2 10=0 9=0 0
8=1 13=1 6=1 0
11=0 8=1 12=1 0
7=1 12=2 1=1 0
11=1 13=0 9=1 0
8=0 5=1 12=2 0
4=0 1=1 10=1 0
4=0 13=1 5=2 0
10=0 6=1 4=2 0
10=1 8=1 1=1 0
5=2 7=0 3=1 0
5=1 6=1 2=1 0
9=1 13=1 10=1 0
6=0 9=2 11=1 0
1=0 4=0 7=0 0
4=0 10=0 12=2 0
